<?xml version="1.0" encoding="UTF-8"?><osil xmlns="os.optimizationservices.org"   xmlns:xsi="http://www.w3.org/2001/XMLSchema-instance" xsi:schemaLocation="os.optimizationservices.org http://www.optimizationservices.org/schemas/2.0/OSiL.xsd" ><instanceHeader><name>q_30_0_50_3</name></instanceHeader><instanceData><variables numberOfVariables="30"><var name="x1" ub="1"/><var name="x2" ub="1"/><var name="x3" ub="1"/><var name="x4" ub="1"/><var name="x5" ub="1"/><var name="x6" ub="1"/><var name="x7" ub="1"/><var name="x8" ub="1"/><var name="x9" ub="1"/><var name="x10" ub="1"/><var name="x11" ub="1"/><var name="x12" ub="1"/><var name="x13" ub="1"/><var name="x14" ub="1"/><var name="x15" ub="1"/><var name="x16" ub="1"/><var name="x17" ub="1"/><var name="x18" ub="1"/><var name="x19" ub="1"/><var name="x20" ub="1"/><var name="x21" ub="1"/><var name="x22" ub="1"/><var name="x23" ub="1"/><var name="x24" ub="1"/><var name="x25" ub="1"/><var name="x26" ub="1"/><var name="x27" ub="1"/><var name="x28" ub="1"/><var name="x29" ub="1"/><var name="x30" ub="1"/></variables><objectives numberOfObjectives="1"><obj maxOrMin="min" name="defObj_x31" numberOfObjCoef="30"><coef idx="0">-.9742</coef><coef idx="1">-.1023</coef><coef idx="2">-.506</coef><coef idx="3">-.2771</coef><coef idx="4">-.5851</coef><coef idx="5">.4033</coef><coef idx="6">-.969</coef><coef idx="7">.4623</coef><coef idx="8">.8593</coef><coef idx="9">.8792</coef><coef idx="10">.7004</coef><coef idx="11">-.1326</coef><coef idx="12">.2992</coef><coef idx="13">-.107</coef><coef idx="14">-2.43e-2</coef><coef idx="15">-.3026</coef><coef idx="16">.4911</coef><coef idx="17">8.88e-2</coef><coef idx="18">-.2336</coef><coef idx="19">-.5938</coef><coef idx="20">.957</coef><coef idx="21">-3.7e-3</coef><coef idx="22">-.4063</coef><coef idx="23">.6278</coef><coef idx="24">.196</coef><coef idx="25">.5782</coef><coef idx="26">-.7207</coef><coef idx="27">.2847</coef><coef idx="28">-.1592</coef><coef idx="29">-.2277</coef></obj></objectives><quadraticCoefficients  numberOfQuadraticTerms="232" ><qTerm  idx="-1"  idxOne="0"  idxTwo="4"  coef="-.1598"/><qTerm  idx="-1"  idxOne="0"  idxTwo="5"  coef="-.8766"/><qTerm  idx="-1"  idxOne="0"  idxTwo="11"  coef=".9205"/><qTerm  idx="-1"  idxOne="0"  idxTwo="13"  coef="-.3642"/><qTerm  idx="-1"  idxOne="0"  idxTwo="16"  coef="-1.9772"/><qTerm  idx="-1"  idxOne="0"  idxTwo="17"  coef=".6385"/><qTerm  idx="-1"  idxOne="0"  idxTwo="20"  coef="-1.7632"/><qTerm  idx="-1"  idxOne="0"  idxTwo="26"  coef="-1.6402"/><qTerm  idx="-1"  idxOne="0"  idxTwo="27"  coef="-1.8429"/><qTerm  idx="-1"  idxOne="0"  idxTwo="29"  coef="-1.8026"/><qTerm  idx="-1"  idxOne="1"  idxTwo="1"  coef="-1.6904"/><qTerm  idx="-1"  idxOne="1"  idxTwo="4"  coef="1.5649"/><qTerm  idx="-1"  idxOne="1"  idxTwo="5"  coef=".5958"/><qTerm  idx="-1"  idxOne="1"  idxTwo="6"  coef=".7263"/><qTerm  idx="-1"  idxOne="1"  idxTwo="7"  coef="-.7301"/><qTerm  idx="-1"  idxOne="1"  idxTwo="13"  coef="1.488"/><qTerm  idx="-1"  idxOne="1"  idxTwo="14"  coef="1.7153"/><qTerm  idx="-1"  idxOne="1"  idxTwo="21"  coef="-4.85e-2"/><qTerm  idx="-1"  idxOne="1"  idxTwo="25"  coef="1.2698"/><qTerm  idx="-1"  idxOne="1"  idxTwo="26"  coef="-.3527"/><qTerm  idx="-1"  idxOne="1"  idxTwo="27"  coef="-1.5604"/><qTerm  idx="-1"  idxOne="1"  idxTwo="28"  coef=".9352"/><qTerm  idx="-1"  idxOne="1"  idxTwo="29"  coef="1.4776"/><qTerm  idx="-1"  idxOne="2"  idxTwo="2"  coef="1.2748"/><qTerm  idx="-1"  idxOne="2"  idxTwo="3"  coef="1.2766"/><qTerm  idx="-1"  idxOne="2"  idxTwo="4"  coef=".1117"/><qTerm  idx="-1"  idxOne="2"  idxTwo="8"  coef="-1.0478"/><qTerm  idx="-1"  idxOne="2"  idxTwo="9"  coef="-1.7112"/><qTerm  idx="-1"  idxOne="2"  idxTwo="11"  coef=".4156"/><qTerm  idx="-1"  idxOne="2"  idxTwo="14"  coef=".1671"/><qTerm  idx="-1"  idxOne="2"  idxTwo="16"  coef="-.5111"/><qTerm  idx="-1"  idxOne="2"  idxTwo="17"  coef="1.7741"/><qTerm  idx="-1"  idxOne="2"  idxTwo="19"  coef=".5896"/><qTerm  idx="-1"  idxOne="2"  idxTwo="21"  coef="-1.9948"/><qTerm  idx="-1"  idxOne="2"  idxTwo="23"  coef="1.1088"/><qTerm  idx="-1"  idxOne="2"  idxTwo="24"  coef="-1.1527"/><qTerm  idx="-1"  idxOne="2"  idxTwo="25"  coef="1.5563"/><qTerm  idx="-1"  idxOne="2"  idxTwo="26"  coef="1.2368"/><qTerm  idx="-1"  idxOne="2"  idxTwo="27"  coef=".6736"/><qTerm  idx="-1"  idxOne="2"  idxTwo="29"  coef="-1.4841"/><qTerm  idx="-1"  idxOne="3"  idxTwo="4"  coef="1.158"/><qTerm  idx="-1"  idxOne="3"  idxTwo="5"  coef=".6472"/><qTerm  idx="-1"  idxOne="3"  idxTwo="6"  coef="-.2211"/><qTerm  idx="-1"  idxOne="3"  idxTwo="8"  coef=".8244"/><qTerm  idx="-1"  idxOne="3"  idxTwo="12"  coef="8.24e-2"/><qTerm  idx="-1"  idxOne="3"  idxTwo="15"  coef="1.8108"/><qTerm  idx="-1"  idxOne="3"  idxTwo="17"  coef="1.503"/><qTerm  idx="-1"  idxOne="3"  idxTwo="23"  coef=".7123"/><qTerm  idx="-1"  idxOne="3"  idxTwo="24"  coef="1.1197"/><qTerm  idx="-1"  idxOne="3"  idxTwo="25"  coef="1.547"/><qTerm  idx="-1"  idxOne="3"  idxTwo="27"  coef="1.2437"/><qTerm  idx="-1"  idxOne="3"  idxTwo="28"  coef="-.5817"/><qTerm  idx="-1"  idxOne="4"  idxTwo="5"  coef="1.1874"/><qTerm  idx="-1"  idxOne="4"  idxTwo="6"  coef="-.2494"/><qTerm  idx="-1"  idxOne="4"  idxTwo="7"  coef=".7569"/><qTerm  idx="-1"  idxOne="4"  idxTwo="9"  coef="1.7454"/><qTerm  idx="-1"  idxOne="4"  idxTwo="10"  coef="1.6901"/><qTerm  idx="-1"  idxOne="4"  idxTwo="11"  coef="-.8946"/><qTerm  idx="-1"  idxOne="4"  idxTwo="14"  coef="-.2069"/><qTerm  idx="-1"  idxOne="4"  idxTwo="15"  coef="-1.3333"/><qTerm  idx="-1"  idxOne="4"  idxTwo="17"  coef="-1.1171"/><qTerm  idx="-1"  idxOne="4"  idxTwo="18"  coef="1.3731"/><qTerm  idx="-1"  idxOne="4"  idxTwo="19"  coef=".777"/><qTerm  idx="-1"  idxOne="4"  idxTwo="20"  coef=".6038"/><qTerm  idx="-1"  idxOne="4"  idxTwo="21"  coef="-.7575"/><qTerm  idx="-1"  idxOne="4"  idxTwo="24"  coef="-1.8511"/><qTerm  idx="-1"  idxOne="4"  idxTwo="25"  coef="-1.0364"/><qTerm  idx="-1"  idxOne="4"  idxTwo="26"  coef="-1.5966"/><qTerm  idx="-1"  idxOne="4"  idxTwo="27"  coef="1.1649"/><qTerm  idx="-1"  idxOne="5"  idxTwo="5"  coef="-3.88e-2"/><qTerm  idx="-1"  idxOne="5"  idxTwo="10"  coef="-1.012"/><qTerm  idx="-1"  idxOne="5"  idxTwo="12"  coef="1.6854"/><qTerm  idx="-1"  idxOne="5"  idxTwo="14"  coef=".1529"/><qTerm  idx="-1"  idxOne="5"  idxTwo="15"  coef=".1793"/><qTerm  idx="-1"  idxOne="5"  idxTwo="16"  coef="-1.2727"/><qTerm  idx="-1"  idxOne="5"  idxTwo="18"  coef="-.6893"/><qTerm  idx="-1"  idxOne="5"  idxTwo="19"  coef=".4953"/><qTerm  idx="-1"  idxOne="5"  idxTwo="23"  coef="-.597"/><qTerm  idx="-1"  idxOne="5"  idxTwo="25"  coef="-1.3573"/><qTerm  idx="-1"  idxOne="5"  idxTwo="27"  coef="1.4976"/><qTerm  idx="-1"  idxOne="5"  idxTwo="28"  coef="-.9682"/><qTerm  idx="-1"  idxOne="6"  idxTwo="6"  coef="-1.0373"/><qTerm  idx="-1"  idxOne="6"  idxTwo="7"  coef="-1.6118"/><qTerm  idx="-1"  idxOne="6"  idxTwo="8"  coef=".5019"/><qTerm  idx="-1"  idxOne="6"  idxTwo="10"  coef="1.0965"/><qTerm  idx="-1"  idxOne="6"  idxTwo="11"  coef="1.2377"/><qTerm  idx="-1"  idxOne="6"  idxTwo="12"  coef="1.3584"/><qTerm  idx="-1"  idxOne="6"  idxTwo="18"  coef="1.1983"/><qTerm  idx="-1"  idxOne="6"  idxTwo="19"  coef="-1.4703"/><qTerm  idx="-1"  idxOne="6"  idxTwo="22"  coef="4.4e-2"/><qTerm  idx="-1"  idxOne="6"  idxTwo="26"  coef="1.6681"/><qTerm  idx="-1"  idxOne="6"  idxTwo="27"  coef="1.1811"/><qTerm  idx="-1"  idxOne="6"  idxTwo="28"  coef="-.6122"/><qTerm  idx="-1"  idxOne="6"  idxTwo="29"  coef="1.0329"/><qTerm  idx="-1"  idxOne="7"  idxTwo="7"  coef="-.3044"/><qTerm  idx="-1"  idxOne="7"  idxTwo="8"  coef="-2.52e-2"/><qTerm  idx="-1"  idxOne="7"  idxTwo="9"  coef="1.9473"/><qTerm  idx="-1"  idxOne="7"  idxTwo="10"  coef=".8271"/><qTerm  idx="-1"  idxOne="7"  idxTwo="12"  coef="-1.7543"/><qTerm  idx="-1"  idxOne="7"  idxTwo="13"  coef="-1.606"/><qTerm  idx="-1"  idxOne="7"  idxTwo="16"  coef="1.8262"/><qTerm  idx="-1"  idxOne="7"  idxTwo="17"  coef="8.56e-2"/><qTerm  idx="-1"  idxOne="7"  idxTwo="18"  coef=".582"/><qTerm  idx="-1"  idxOne="7"  idxTwo="19"  coef="-1.4896"/><qTerm  idx="-1"  idxOne="7"  idxTwo="23"  coef="1.6421"/><qTerm  idx="-1"  idxOne="7"  idxTwo="25"  coef="-1.4848"/><qTerm  idx="-1"  idxOne="7"  idxTwo="26"  coef="1.1909"/><qTerm  idx="-1"  idxOne="7"  idxTwo="27"  coef="1.2802"/><qTerm  idx="-1"  idxOne="8"  idxTwo="10"  coef="-1.4403"/><qTerm  idx="-1"  idxOne="8"  idxTwo="14"  coef="-1.2585"/><qTerm  idx="-1"  idxOne="8"  idxTwo="15"  coef="1.9252"/><qTerm  idx="-1"  idxOne="8"  idxTwo="16"  coef="1.7195"/><qTerm  idx="-1"  idxOne="8"  idxTwo="17"  coef="1.5185"/><qTerm  idx="-1"  idxOne="8"  idxTwo="20"  coef="-.4968"/><qTerm  idx="-1"  idxOne="8"  idxTwo="21"  coef="-.791"/><qTerm  idx="-1"  idxOne="8"  idxTwo="24"  coef=".2241"/><qTerm  idx="-1"  idxOne="8"  idxTwo="27"  coef="-.5569"/><qTerm  idx="-1"  idxOne="8"  idxTwo="29"  coef="1.6272"/><qTerm  idx="-1"  idxOne="9"  idxTwo="11"  coef=".6078"/><qTerm  idx="-1"  idxOne="9"  idxTwo="13"  coef="1.9758"/><qTerm  idx="-1"  idxOne="9"  idxTwo="15"  coef="-.1943"/><qTerm  idx="-1"  idxOne="9"  idxTwo="16"  coef=".4317"/><qTerm  idx="-1"  idxOne="9"  idxTwo="17"  coef="1.4816"/><qTerm  idx="-1"  idxOne="9"  idxTwo="19"  coef="1.7118"/><qTerm  idx="-1"  idxOne="9"  idxTwo="22"  coef="1.7277"/><qTerm  idx="-1"  idxOne="9"  idxTwo="24"  coef="1.7015"/><qTerm  idx="-1"  idxOne="9"  idxTwo="25"  coef="1.7333"/><qTerm  idx="-1"  idxOne="9"  idxTwo="26"  coef="-.3557"/><qTerm  idx="-1"  idxOne="9"  idxTwo="27"  coef="6.62e-2"/><qTerm  idx="-1"  idxOne="9"  idxTwo="28"  coef="-.6414"/><qTerm  idx="-1"  idxOne="10"  idxTwo="13"  coef="-.9189"/><qTerm  idx="-1"  idxOne="10"  idxTwo="14"  coef="-.4231"/><qTerm  idx="-1"  idxOne="10"  idxTwo="15"  coef="1.9685"/><qTerm  idx="-1"  idxOne="10"  idxTwo="19"  coef=".839"/><qTerm  idx="-1"  idxOne="10"  idxTwo="20"  coef="1.8588"/><qTerm  idx="-1"  idxOne="10"  idxTwo="21"  coef="-.5102"/><qTerm  idx="-1"  idxOne="10"  idxTwo="22"  coef="-1.5592"/><qTerm  idx="-1"  idxOne="10"  idxTwo="23"  coef=".363"/><qTerm  idx="-1"  idxOne="10"  idxTwo="25"  coef="-1.9981"/><qTerm  idx="-1"  idxOne="10"  idxTwo="27"  coef="-.8859"/><qTerm  idx="-1"  idxOne="10"  idxTwo="28"  coef="1.8385"/><qTerm  idx="-1"  idxOne="11"  idxTwo="13"  coef="-1.8092"/><qTerm  idx="-1"  idxOne="11"  idxTwo="14"  coef="1.9171"/><qTerm  idx="-1"  idxOne="11"  idxTwo="20"  coef="-.5119"/><qTerm  idx="-1"  idxOne="11"  idxTwo="24"  coef="1.0074"/><qTerm  idx="-1"  idxOne="11"  idxTwo="26"  coef="-.6105"/><qTerm  idx="-1"  idxOne="11"  idxTwo="27"  coef=".1167"/><qTerm  idx="-1"  idxOne="11"  idxTwo="28"  coef=".5866"/><qTerm  idx="-1"  idxOne="12"  idxTwo="15"  coef="-1.6868"/><qTerm  idx="-1"  idxOne="12"  idxTwo="18"  coef=".4566"/><qTerm  idx="-1"  idxOne="12"  idxTwo="19"  coef="1.7948"/><qTerm  idx="-1"  idxOne="12"  idxTwo="20"  coef="1.9884"/><qTerm  idx="-1"  idxOne="12"  idxTwo="22"  coef=".3576"/><qTerm  idx="-1"  idxOne="12"  idxTwo="24"  coef="1.6104"/><qTerm  idx="-1"  idxOne="12"  idxTwo="29"  coef="-8.06e-2"/><qTerm  idx="-1"  idxOne="13"  idxTwo="15"  coef="1.9604"/><qTerm  idx="-1"  idxOne="13"  idxTwo="16"  coef=".7432"/><qTerm  idx="-1"  idxOne="13"  idxTwo="17"  coef="1.3232"/><qTerm  idx="-1"  idxOne="13"  idxTwo="19"  coef="-1.0331"/><qTerm  idx="-1"  idxOne="13"  idxTwo="20"  coef=".3822"/><qTerm  idx="-1"  idxOne="13"  idxTwo="21"  coef=".7292"/><qTerm  idx="-1"  idxOne="13"  idxTwo="23"  coef="1.4818"/><qTerm  idx="-1"  idxOne="13"  idxTwo="24"  coef="1.9298"/><qTerm  idx="-1"  idxOne="13"  idxTwo="25"  coef=".8851"/><qTerm  idx="-1"  idxOne="13"  idxTwo="28"  coef="-1.5362"/><qTerm  idx="-1"  idxOne="14"  idxTwo="14"  coef=".3002"/><qTerm  idx="-1"  idxOne="14"  idxTwo="17"  coef=".1901"/><qTerm  idx="-1"  idxOne="14"  idxTwo="23"  coef="1.7036"/><qTerm  idx="-1"  idxOne="14"  idxTwo="26"  coef="1.3109"/><qTerm  idx="-1"  idxOne="14"  idxTwo="27"  coef=".9354"/><qTerm  idx="-1"  idxOne="14"  idxTwo="28"  coef="-5.55e-2"/><qTerm  idx="-1"  idxOne="15"  idxTwo="15"  coef=".6771"/><qTerm  idx="-1"  idxOne="15"  idxTwo="17"  coef="-1.8126"/><qTerm  idx="-1"  idxOne="15"  idxTwo="18"  coef="1.522"/><qTerm  idx="-1"  idxOne="15"  idxTwo="19"  coef=".935"/><qTerm  idx="-1"  idxOne="15"  idxTwo="20"  coef="-.8062"/><qTerm  idx="-1"  idxOne="15"  idxTwo="22"  coef="-1.5467"/><qTerm  idx="-1"  idxOne="15"  idxTwo="23"  coef="-1.9103"/><qTerm  idx="-1"  idxOne="15"  idxTwo="25"  coef=".7544"/><qTerm  idx="-1"  idxOne="16"  idxTwo="16"  coef="-.957"/><qTerm  idx="-1"  idxOne="16"  idxTwo="19"  coef=".434"/><qTerm  idx="-1"  idxOne="16"  idxTwo="20"  coef="1.5033"/><qTerm  idx="-1"  idxOne="16"  idxTwo="22"  coef="1.296"/><qTerm  idx="-1"  idxOne="16"  idxTwo="23"  coef="-1.6733"/><qTerm  idx="-1"  idxOne="16"  idxTwo="24"  coef="-.8141"/><qTerm  idx="-1"  idxOne="16"  idxTwo="25"  coef="-1.38"/><qTerm  idx="-1"  idxOne="16"  idxTwo="26"  coef="1.8389"/><qTerm  idx="-1"  idxOne="16"  idxTwo="28"  coef="-1.337"/><qTerm  idx="-1"  idxOne="16"  idxTwo="29"  coef="-.2847"/><qTerm  idx="-1"  idxOne="17"  idxTwo="18"  coef="-4.29e-2"/><qTerm  idx="-1"  idxOne="17"  idxTwo="20"  coef="1.9295"/><qTerm  idx="-1"  idxOne="17"  idxTwo="23"  coef="-1.5641"/><qTerm  idx="-1"  idxOne="17"  idxTwo="25"  coef="-.5811"/><qTerm  idx="-1"  idxOne="17"  idxTwo="27"  coef="-.6612"/><qTerm  idx="-1"  idxOne="17"  idxTwo="28"  coef="-.9488"/><qTerm  idx="-1"  idxOne="17"  idxTwo="29"  coef=".2748"/><qTerm  idx="-1"  idxOne="18"  idxTwo="21"  coef=".3257"/><qTerm  idx="-1"  idxOne="18"  idxTwo="24"  coef="1.8856"/><qTerm  idx="-1"  idxOne="18"  idxTwo="25"  coef="1.5409"/><qTerm  idx="-1"  idxOne="18"  idxTwo="28"  coef="-2.85e-2"/><qTerm  idx="-1"  idxOne="19"  idxTwo="20"  coef="1.2981"/><qTerm  idx="-1"  idxOne="19"  idxTwo="22"  coef="-1.6126"/><qTerm  idx="-1"  idxOne="19"  idxTwo="23"  coef="8.53e-2"/><qTerm  idx="-1"  idxOne="19"  idxTwo="24"  coef=".358"/><qTerm  idx="-1"  idxOne="19"  idxTwo="25"  coef="1.385"/><qTerm  idx="-1"  idxOne="19"  idxTwo="26"  coef=".9149"/><qTerm  idx="-1"  idxOne="20"  idxTwo="20"  coef="-.984"/><qTerm  idx="-1"  idxOne="20"  idxTwo="21"  coef=".892"/><qTerm  idx="-1"  idxOne="20"  idxTwo="27"  coef="-1.0154"/><qTerm  idx="-1"  idxOne="21"  idxTwo="22"  coef="1.1489"/><qTerm  idx="-1"  idxOne="21"  idxTwo="23"  coef="-1.4756"/><qTerm  idx="-1"  idxOne="21"  idxTwo="24"  coef="7.67e-2"/><qTerm  idx="-1"  idxOne="21"  idxTwo="28"  coef=".8851"/><qTerm  idx="-1"  idxOne="21"  idxTwo="29"  coef="1.3756"/><qTerm  idx="-1"  idxOne="22"  idxTwo="23"  coef="-1.9717"/><qTerm  idx="-1"  idxOne="22"  idxTwo="24"  coef="1.4939"/><qTerm  idx="-1"  idxOne="22"  idxTwo="25"  coef="1.5252"/><qTerm  idx="-1"  idxOne="22"  idxTwo="29"  coef="1.5584"/><qTerm  idx="-1"  idxOne="23"  idxTwo="24"  coef=".1543"/><qTerm  idx="-1"  idxOne="23"  idxTwo="25"  coef="-.6684"/><qTerm  idx="-1"  idxOne="23"  idxTwo="26"  coef="-.4475"/><qTerm  idx="-1"  idxOne="23"  idxTwo="27"  coef="-1.7084"/><qTerm  idx="-1"  idxOne="23"  idxTwo="28"  coef="-.6603"/><qTerm  idx="-1"  idxOne="23"  idxTwo="29"  coef="-.2744"/><qTerm  idx="-1"  idxOne="24"  idxTwo="25"  coef=".8006"/><qTerm  idx="-1"  idxOne="24"  idxTwo="28"  coef="1.8451"/><qTerm  idx="-1"  idxOne="25"  idxTwo="25"  coef=".4808"/><qTerm  idx="-1"  idxOne="25"  idxTwo="26"  coef=".1158"/><qTerm  idx="-1"  idxOne="26"  idxTwo="27"  coef="-.438"/><qTerm  idx="-1"  idxOne="27"  idxTwo="28"  coef="1.027"/><qTerm  idx="-1"  idxOne="27"  idxTwo="29"  coef="1.8462"/><qTerm  idx="-1"  idxOne="28"  idxTwo="28"  coef=".1605"/></quadraticCoefficients></instanceData></osil>
